experiment/data/lkh-res/Vrp-Set-X-n284/Vrp-Set-X-n284-lkh/0.lkh1.vrp
NAME : 0
COMMENT : CVRP Instance
TYPE : CVRP
DIMENSION : 284
EDGE_WEIGHT_TYPE : EUC_2D
CAPACITY : 109
NODE_COORD_SECTION
1	67400	82500
2	54900	53400
3	4300	31500
4	54200	42000
5	4500	58000
6	18000	45000
7	36900	61800
8	28700	72100
9	3600	42600
10	41100	40800
11	17000	44600
12	2100	33300
13	3700	42800
14	61700	45600
15	5200	52700
16	11400	22700
17	3200	30300
18	23300	63800
19	31400	56800
20	29000	73600
21	54900	44900
22	31700	69900
23	67600	99200
24	4500	85100
25	45500	50800
26	12800	44600
27	3400	30200
28	15200	66000
29	55000	57600
30	55900	58500
31	30600	65500
32	18300	44900
33	38000	58600
34	72600	39900
35	2100	27700
36	30600	67900
37	12800	31700
38	54700	72600
39	24200	38900
40	34700	59500
41	32400	38400
42	53100	49200
43	10300	48000
44	19700	49500
45	2000	32100
46	6600	40200
47	10000	63800
48	45300	58200
49	12000	51400
50	69100	49900
51	31100	44900
52	35000	57400
53	19800	43700
54	37000	72200
55	51300	43800
56	27300	64500
57	600	50800
58	4400	58100
59	30900	76300
60	1800	61600
61	12800	60300
62	54300	46600
63	68700	46600
64	62500	52500
65	5400	44900
66	50400	51700
67	59200	37500
68	4900	40100
69	63800	45900
70	32900	61400
71	65700	41600
72	100	29600
73	21700	44300
74	4200	72100
75	100	41600
76	15700	73100
77	24400	72700
78	12800	32000
79	54800	58800
80	55900	43800
81	42500	92000
82	1700	48100
83	13000	37600
84	45900	43300
85	900	40800
86	36400	50700
87	5500	29500
88	35700	71100
89	16800	29200
90	3100	40700
91	54400	41400
92	28500	80100
93	43900	38700
94	75100	63800
95	6600	34500
96	34700	63600
97	41300	57900
98	35300	71300
99	68600	49200
100	19200	45000
101	53500	47900
102	65800	30100
103	42800	34600
104	1800	35900
105	36400	65300
106	29300	51500
107	32600	45900
108	6000	37000
109	25200	42600
110	53200	41100
111	22500	72200
112	25900	22700
113	1900	55800
114	36800	57300
115	38200	64500
116	8400	43400
117	59600	63000
118	2700	36700
119	18600	46000
120	11600	62900
121	17700	57600
122	8900	54400
123	57400	62300
124	84100	28800
125	16600	45800
126	54100	48100
127	25500	54500
128	3800	27300
129	67200	31300
130	26400	75700
131	5900	27800
132	35100	29800
133	2600	44700
134	33400	62000
135	2100	52700
136	26800	40200
137	54700	54700
138	5400	55100
139	53000	41400
140	5300	44100
141	10300	27300
142	18100	32700
143	16300	34200
144	14100	25600
145	61900	38300
146	50200	49400
147	32400	55800
148	12100	51800
149	11600	30700
150	26200	51100
151	59200	41800
152	8500	35500
153	44200	62200
154	30700	58100
155	34400	61900
156	50900	65300
157	14000	43600
158	60300	51100
159	15500	63300
160	8300	54500
161	38900	63800
162	23100	73200
163	14100	36200
164	3600	43500
165	49900	33100
166	60500	32700
167	21700	37500
168	5000	49100
169	48700	55500
170	62500	35500
171	41500	59900
172	31400	84000
173	58900	58900
174	19900	46300
175	68300	48800
176	5500	50100
177	3000	36800
178	30800	72900
179	60900	37000
180	9700	67800
181	6900	43900
182	20800	38000
183	8500	47800
184	9600	61800
185	3900	32100
186	4700	40900
187	54100	48900
188	7600	37600
189	46900	63800
190	50100	45800
191	5100	52700
192	42800	48400
193	19700	39000
194	27900	74400
195	18100	31900
196	3900	64000
197	7000	41700
198	32000	80000
199	8800	32600
200	44800	62400
201	500	40500
202	900	52000
203	2600	20000
204	43200	55600
205	40500	54100
206	24200	42900
207	50100	57900
208	47900	42700
209	2700	57100
210	60200	44000
211	39800	65700
212	17600	48200
213	51700	50900
214	18400	46400
215	35000	60600
216	4500	40700
217	5200	46500
218	61200	43400
219	31800	97900
220	22600	64200
221	54400	43100
222	60700	57400
223	13000	76700
224	20400	74200
225	51800	46400
226	43900	61900
227	10400	46300
228	58400	49500
229	18300	64200
230	74700	47800
231	52800	58800
232	3700	25600
233	11300	39500
234	18900	42100
235	53700	54100
236	55400	48400
237	39500	51400
238	3100	64700
239	6300	47300
240	63600	43200
241	33700	50500
242	67800	51800
243	39600	43500
244	60300	50100
245	17300	62900
246	57500	39500
247	30900	60400
248	37100	79500
249	26200	45200
250	2900	52100
251	37500	62300
252	52500	44900
253	48200	54200
254	58900	42000
255	8600	34000
256	2200	70500
257	34300	67300
258	4500	55800
259	53000	48300
260	52800	38900
261	29900	67800
262	48600	32600
263	41400	53600
264	67300	1500
265	5600	35400
266	1300	45600
267	61500	50500
268	15500	39200
269	1700	34200
270	50500	33300
271	26400	38700
272	28900	54100
273	14000	49800
274	44500	60600
275	53400	46800
276	11200	45600
277	60400	60400
278	30400	61400
279	22800	65900
280	33900	62200
281	51300	41100
282	29000	42200
283	72800	45700
284	37900	59400
DEMAND_SECTION
1	0
2	7
3	3
4	3
5	5
6	4
7	8
8	1
9	2
10	9
11	5
12	2
13	2
14	4
15	1
16	3
17	4
18	10
19	2
20	2
21	3
22	9
23	2
24	1
25	6
26	8
27	9
28	7
29	8
30	8
31	4
32	6
33	2
34	7
35	5
36	10
37	4
38	9
39	6
40	8
41	1
42	5
43	5
44	8
45	5
46	5
47	4
48	8
49	3
50	6
51	7
52	7
53	9
54	9
55	5
56	4
57	3
58	9
59	3
60	7
61	9
62	1
63	6
64	2
65	8
66	9
67	2
68	6
69	7
70	7
71	7
72	10
73	10
74	5
75	5
76	8
77	7
78	3
79	2
80	3
81	3
82	1
83	9
84	4
85	2
86	1
87	5
88	5
89	5
90	6
91	4
92	8
93	9
94	2
95	2
96	8
97	5
98	6
99	8
100	7
101	10
102	5
103	1
104	6
105	1
106	1
107	9
108	7
109	6
110	3
111	4
112	7
113	7
114	6
115	3
116	6
117	10
118	2
119	3
120	4
121	5
122	9
123	8
124	5
125	3
126	10
127	2
128	3
129	9
130	9
131	9
132	5
133	2
134	9
135	9
136	4
137	7
138	5
139	3
140	8
141	9
142	3
143	1
144	10
145	8
146	2
147	5
148	9
149	10
150	6
151	10
152	10
153	7
154	1
155	9
156	2
157	1
158	1
159	8
160	6
161	1
162	10
163	10
164	5
165	10
166	6
167	10
168	3
169	1
170	7
171	3
172	7
173	4
174	8
175	3
176	1
177	9
178	2
179	9
180	5
181	1
182	2
183	5
184	3
185	3
186	3
187	3
188	3
189	10
190	10
191	9
192	7
193	4
194	9
195	7
196	1
197	3
198	3
199	5
200	3
201	5
202	1
203	3
204	6
205	9
206	6
207	10
208	8
209	2
210	6
211	2
212	10
213	10
214	6
215	10
216	10
217	7
218	6
219	6
220	1
221	8
222	6
223	5
224	3
225	1
226	9
227	4
228	8
229	8
230	5
231	4
232	3
233	3
234	6
235	9
236	10
237	2
238	3
239	3
240	1
241	1
242	7
243	8
244	6
245	5
246	5
247	4
248	2
249	10
250	2
251	1
252	2
253	3
254	3
255	6
256	5
257	5
258	1
259	8
260	8
261	3
262	1
263	8
264	1
265	7
266	6
267	6
268	3
269	10
270	5
271	1
272	9
273	8
274	5
275	2
276	9
277	4
278	4
279	8
280	7
281	6
282	3
283	6
284	8
DEPOT_SECTION
1
-1
EOF
