experiment/data/lkh-res/Vrp-Set-X-n284/Vrp-Set-X-n284-lkh/0.lkh1.tour
NAME : 0.2076223.tour
COMMENT : Length = 2076223
COMMENT : Found by LKH-3 [Keld Helsgaun] Tue Apr  9 05:26:49 2024
TYPE : TOUR
DIMENSION : 298
TOUR_SECTION
1
2
187
62
21
252
55
281
260
270
165
262
93
10
243
192
25
253
169
207
231
297
106
234
268
163
83
152
255
199
78
37
149
141
144
89
195
142
143
193
182
41
291
178
8
28
184
250
135
202
57
82
266
133
164
13
9
90
85
75
201
104
118
177
108
188
11
6
174
161
290
156
48
204
263
237
107
51
282
136
271
39
167
206
109
249
241
86
205
97
274
295
79
66
146
190
84
208
139
110
91
4
221
80
210
218
240
71
63
175
99
50
242
289
257
31
56
18
220
279
229
245
159
61
120
47
180
223
76
224
92
172
286
64
267
69
14
151
254
246
67
179
145
170
166
129
102
264
124
34
283
230
94
285
23
81
219
24
74
256
238
196
60
58
5
209
113
258
138
191
15
160
122
49
148
121
278
105
287
117
277
173
123
288
125
157
233
95
265
269
12
45
72
35
27
17
185
3
87
131
128
232
203
16
112
132
103
225
275
293
30
29
137
235
213
42
259
101
126
236
228
244
158
222
292
54
88
98
22
36
261
77
111
162
130
194
20
59
198
248
296
251
7
154
127
44
212
214
119
32
100
53
73
150
272
147
52
114
33
171
298
38
189
200
153
226
284
40
215
70
134
280
155
96
115
211
294
19
26
276
227
116
181
197
46
68
216
186
140
65
217
239
168
176
183
43
273
247
-1
EOF
